NAME : P = NP
TYPE : TSP
DIMENSION : 25
EDGE_WEIGHT_TYPE : EUC_2D
NODE_COORD_SECTION
0 272 67
1 36 17
2 165 506
3 130 245
4 151 128
5 86 902
6 152 289
7 600 266
8 190 169
9 205 17
10 361 84
11 496 221
12 380 129
13 26 106
14 423 225
15 673 41
16 154 310
17 229 297
18 42 2
19 2 348
20 132 206
21 32 50
22 97 50
23 62 5
24 435 21